
Gurobi 10.0.1 (mac64[arm]) logging started Mon Apr 29 17:24:54 2024

Set parameter LogFile to value "/Users/deniserings/Documents/zib/s-bahn-data/scripts/DeniseMA/processed/BBOS_BWIN_BTG/Branching/BBOS_BWIN_BTG_other alternatives_subMBP202404291712.log"
Gurobi Optimizer version 10.0.1 build v10.0.1rc0 (mac64[arm])

CPU model: Apple M2
Thread count: 8 physical cores, 8 logical processors, using up to 8 threads

Optimize a model with 3981 rows, 2210 columns and 14469 nonzeros
Model fingerprint: 0x8676857d
Variable types: 1213 continuous, 997 integer (100 binary)
Coefficient statistics:
  Matrix range     [1e+00, 2e+02]
  Objective range  [1e+00, 4e+02]
  Bounds range     [1e+00, 2e+02]
  RHS range        [1e+00, 5e+02]

Loaded user MIP start with objective 10210

Presolve removed 2617 rows and 1187 columns
Presolve time: 0.63s
Presolved: 1364 rows, 1023 columns, 5854 nonzeros
Found heuristic solution: objective 10209.998263
Variable types: 546 continuous, 477 integer (477 binary)

Root relaxation: objective 9.839999e+03, 484 iterations, 0.01 seconds (0.00 work units)

    Nodes    |    Current Node    |     Objective Bounds      |     Work
 Expl Unexpl |  Obj  Depth IntInf | Incumbent    BestBd   Gap | It/Node Time

     0     0 9839.99919    0   32 10209.9983 9839.99919  3.62%     -    0s
     0     0 9871.23391    0   25 10209.9983 9871.23391  3.32%     -    0s
     0     0 9871.40086    0   24 10209.9983 9871.40086  3.32%     -    0s
     0     0 9871.52811    0   40 10209.9983 9871.52811  3.32%     -    0s
     0     0 9871.52811    0   34 10209.9983 9871.52811  3.32%     -    0s
     0     0 9877.73603    0   30 10209.9983 9877.73603  3.25%     -    0s
     0     0 9878.99919    0   30 10209.9983 9878.99919  3.24%     -    0s
     0     0 9879.03286    0   31 10209.9983 9879.03286  3.24%     -    0s
     0     0 9879.15187    0   27 10209.9983 9879.15187  3.24%     -    0s
H    0     0                    10209.998259 9879.15187  3.24%     -    0s
     0     0 9879.15187    0   23 10209.9983 9879.15187  3.24%     -    0s
     0     0 9879.16992    0   20 10209.9983 9879.16992  3.24%     -    0s
     0     0 9879.16992    0   20 10209.9983 9879.16992  3.24%     -    0s
     0     0 9879.16992    0   16 10209.9983 9879.16992  3.24%     -    0s
     0     0 9879.16992    0   18 10209.9983 9879.16992  3.24%     -    0s
     0     0 9879.16992    0   16 10209.9983 9879.16992  3.24%     -    1s
     0     0 9879.16992    0   16 10209.9983 9879.16992  3.24%     -    1s
     0     0 9879.16992    0   19 10209.9983 9879.16992  3.24%     -    1s
     0     0 9879.22928    0   19 10209.9983 9879.22928  3.24%     -    1s
     0     0 9879.23197    0   19 10209.9983 9879.23197  3.24%     -    1s
     0     0 9881.61211    0   21 10209.9983 9881.61211  3.22%     -    1s
     0     0 9881.92634    0   19 10209.9983 9881.92634  3.21%     -    1s
     0     0 9881.92634    0   39 10209.9983 9881.92634  3.21%     -    1s
     0     0 9881.92634    0   33 10209.9983 9881.92634  3.21%     -    1s
     0     0 9881.92634    0   29 10209.9983 9881.92634  3.21%     -    1s
     0     0 9881.92634    0   29 10209.9983 9881.92634  3.21%     -    1s
     0     0 9881.92634    0   21 10209.9983 9881.92634  3.21%     -    1s
     0     0 9881.92634    0   20 10209.9983 9881.92634  3.21%     -    1s
     0     0 9881.92634    0   19 10209.9983 9881.92634  3.21%     -    1s
H    0     0                    10209.998220 9881.92634  3.21%     -    1s
     0     0 9881.92634    0   20 10209.9982 9881.92634  3.21%     -    1s
     0     0 9881.92634    0   21 10209.9982 9881.92634  3.21%     -    1s
     0     0 9881.92634    0   19 10209.9982 9881.92634  3.21%     -    1s
  7608  2884 9888.99919   12    9 10209.9982 9888.99919  3.14%   8.9    6s
 11316  3406 9954.99919   29    6 10209.9982 9889.99919  3.13%   9.5   10s
H14040  3308                    10209.998196 9889.99919  3.13%   9.5   10s
 26555  7246 9918.45811   56    7 10209.9982 9891.99919  3.11%  10.6   15s
 44418 11852 9898.83732   37   22 10209.9982 9892.90280  3.11%  11.1   20s
 51717 14897 10017.7925   34    3 10209.9982 9897.99919  3.06%  11.5   25s
 65427 19533     cutoff   39      10209.9982 9906.72469  2.97%  11.9   30s
H74937 20869                    10209.998000 9906.72469  2.97%  11.7   32s
 74961 20888 9906.72469   26   24 10209.9980 9906.72469  2.97%  11.7   40s
 83168 23108 9909.99919   44    9 10209.9980 9909.99919  2.94%  11.8   45s
 103640 26343 9924.54020   78   11 10209.9980 9909.99919  2.94%  12.0   50s
 126800 29802 9987.87419   58    4 10209.9980 9909.99919  2.94%  11.9   55s
 138953 32525 9963.99919   89    8 10209.9980 9909.99919  2.94%  12.0   60s
 158662 35152 9974.09302   47    6 10209.9980 9909.99919  2.94%  12.0   65s
H160036 35152                    10209.997923 9909.99919  2.94%  12.0   65s
 173904 41896 9921.64933   64    5 10209.9979 9909.99919  2.94%  12.0   70s
 206581 49281 10008.2402   67   18 10209.9979 9909.99919  2.94%  11.9   75s
 226669 60653 10000.9992   60    3 10209.9979 9909.99919  2.94%  12.0   80s
 260005 68443     cutoff   43      10209.9979 9909.99919  2.94%  12.0   85s
 279764 76401 10049.6195   84   19 10209.9979 9909.99919  2.94%  12.0   90s
 284045 78343 9967.99919   70   13 10209.9979 9909.99919  2.94%  12.0   96s
 290892 82418 10027.3375   62   22 10209.9979 9909.99919  2.94%  12.0  100s
 309659 89400 10045.1281   38    4 10209.9979 9909.99919  2.94%  12.0  105s
 349297 96090 9915.77258   65   27 10209.9979 9909.99919  2.94%  12.0  110s
 368130 108006 10037.3375  104   21 10209.9979 9909.99919  2.94%  12.0  115s
 388367 120035     cutoff   95      10209.9979 9909.99919  2.94%  12.0  120s
 425475 126239 9909.99919   29    5 10209.9979 9909.99919  2.94%  11.9  125s
 448200 134113 9913.58094   58   13 10209.9979 9909.99919  2.94%  11.9  130s
 468429 145452 9913.07593   59   20 10209.9979 9909.99919  2.94%  11.9  135s
 488092 156889 9957.37757   75    9 10209.9979 9909.99919  2.94%  11.9  140s
 536554 164085 9962.76839   41    5 10209.9979 9909.99919  2.94%  11.9  145s
 565442 180079 9917.99919   55   10 10209.9979 9909.99919  2.94%  11.9  150s
 586606 194166 9926.19477   67   11 10209.9979 9909.99919  2.94%  12.0  155s
 630830 204101     cutoff   36      10209.9979 9909.99919  2.94%  12.0  160s
H643857 206136                    10209.997892 9909.99919  2.94%  12.0  161s
 662367 217882 9914.21514   60   32 10209.9979 9910.11414  2.94%  12.0  165s
 682341 228897     cutoff   62      10209.9979 9910.54520  2.93%  12.1  170s
 711130 238339     cutoff   48      10209.9979 9910.73201  2.93%  12.2  175s
 749879 245260 9979.01068   69   19 10209.9979 9910.87407  2.93%  12.3  180s

Cutting planes:
  Learned: 4
  Gomory: 3
  Cover: 10
  Implied bound: 4
  Clique: 3
  MIR: 30
  StrongCG: 3
  Flow cover: 2
  Network: 1
  RLT: 13
  Relax-and-lift: 5

Explored 750659 nodes (9208917 simplex iterations) in 180.78 seconds (64.99 work units)
Thread count was 8 (of 8 available processors)

Solution count 6: 10210 10210 10210 ... 10210

Solve interrupted
Best objective 1.020999789175e+04, best bound 9.910901629484e+03, gap 2.9294%

User-callback calls 1501556, time in user-callback 5.57 sec

Statistics for modelBBOS_BWIN_BTG:
  Linear constraint matrix    : 3981 Constrs, 2210 Vars, 14469 NZs
  Variable types              : 1213 Continuous,
997 Integer (100 Binary)
  Matrix coefficient range    : [ 1, 200 ]
  Objective coefficient range : [ 1, 396 ]
  Variable bound range        : [ 1, 199 ]
  RHS coefficient range       : [ 1, 549 ]

Gurobi 10.0.1 (mac64[arm]) logging started Mon Apr 29 17:27:55 2024

Set parameter LogFile to value "/Users/deniserings/Documents/zib/s-bahn-data/scripts/DeniseMA/processed/BBOS_BWIN_BTG/Branching/BBOS_BWIN_BTG_other alternatives_subMBP202404291712.log"
Gurobi Optimizer version 10.0.1 build v10.0.1rc0 (mac64[arm])

CPU model: Apple M2
Thread count: 8 physical cores, 8 logical processors, using up to 8 threads

Optimize a model with 3981 rows, 2210 columns and 14469 nonzeros
Model fingerprint: 0x8676857d
Variable types: 1213 continuous, 997 integer (100 binary)
Coefficient statistics:
  Matrix range     [1e+00, 2e+02]
  Objective range  [1e+00, 4e+02]
  Bounds range     [1e+00, 2e+02]
  RHS range        [1e+00, 5e+02]

Loaded user MIP start with objective 10210

Presolve removed 2617 rows and 1187 columns
Presolve time: 0.36s
Presolved: 1364 rows, 1023 columns, 5854 nonzeros
Found heuristic solution: objective 10209.998263
Variable types: 546 continuous, 477 integer (477 binary)

Root relaxation: objective 9.839999e+03, 484 iterations, 0.01 seconds (0.00 work units)

    Nodes    |    Current Node    |     Objective Bounds      |     Work
 Expl Unexpl |  Obj  Depth IntInf | Incumbent    BestBd   Gap | It/Node Time

     0     0 9839.99919    0   32 10209.9983 9839.99919  3.62%     -    0s
     0     0 9871.23391    0   25 10209.9983 9871.23391  3.32%     -    0s
     0     0 9871.40086    0   24 10209.9983 9871.40086  3.32%     -    0s
     0     0 9871.52811    0   40 10209.9983 9871.52811  3.32%     -    0s
     0     0 9871.52811    0   34 10209.9983 9871.52811  3.32%     -    0s
     0     0 9877.73603    0   30 10209.9983 9877.73603  3.25%     -    0s
     0     0 9878.99919    0   30 10209.9983 9878.99919  3.24%     -    0s
     0     0 9879.03286    0   31 10209.9983 9879.03286  3.24%     -    0s
     0     0 9879.15187    0   27 10209.9983 9879.15187  3.24%     -    0s
H    0     0                    10209.998259 9879.15187  3.24%     -    0s
     0     0 9879.15187    0   23 10209.9983 9879.15187  3.24%     -    0s
     0     0 9879.16992    0   20 10209.9983 9879.16992  3.24%     -    0s
     0     0 9879.16992    0   20 10209.9983 9879.16992  3.24%     -    0s
     0     0 9879.16992    0   16 10209.9983 9879.16992  3.24%     -    0s
     0     0 9879.16992    0   18 10209.9983 9879.16992  3.24%     -    0s
     0     0 9879.16992    0   16 10209.9983 9879.16992  3.24%     -    0s
     0     0 9879.16992    0   16 10209.9983 9879.16992  3.24%     -    0s
     0     0 9879.16992    0   19 10209.9983 9879.16992  3.24%     -    0s
     0     0 9879.22928    0   19 10209.9983 9879.22928  3.24%     -    0s
     0     0 9879.23197    0   19 10209.9983 9879.23197  3.24%     -    0s
     0     0 9881.61211    0   21 10209.9983 9881.61211  3.22%     -    0s
     0     0 9881.92634    0   19 10209.9983 9881.92634  3.21%     -    0s
     0     0 9881.92634    0   39 10209.9983 9881.92634  3.21%     -    0s
     0     0 9881.92634    0   33 10209.9983 9881.92634  3.21%     -    0s
     0     0 9881.92634    0   29 10209.9983 9881.92634  3.21%     -    0s
     0     0 9881.92634    0   29 10209.9983 9881.92634  3.21%     -    0s
     0     0 9881.92634    0   21 10209.9983 9881.92634  3.21%     -    0s
     0     0 9881.92634    0   20 10209.9983 9881.92634  3.21%     -    0s
     0     0 9881.92634    0   19 10209.9983 9881.92634  3.21%     -    0s
H    0     0                    10209.998220 9881.92634  3.21%     -    0s
     0     0 9881.92634    0   20 10209.9982 9881.92634  3.21%     -    0s
     0     0 9881.92634    0   21 10209.9982 9881.92634  3.21%     -    0s
     0     0 9881.92634    0   19 10209.9982 9881.92634  3.21%     -    0s
H14040  3308                    10209.998196 9889.99919  3.13%   9.5    4s
 15109  3587 9992.57934   58    3 10209.9982 9889.99919  3.13%   9.8    5s
 41294 11469 9990.72914   40    5 10209.9982 9892.90280  3.11%  11.1   10s
 58187 16224 9975.99919   41   16 10209.9982 9897.99919  3.06%  11.5   15s
 64420 19313 10028.9992   61   17 10209.9982 9906.07444  2.98%  11.8   20s
H74937 20869                    10209.998000 9906.72469  2.97%  11.7   22s
 74961 20888 9906.72469   26   24 10209.9980 9906.72469  2.97%  11.7   28s
 75998 21333 9909.23056   34   18 10209.9980 9906.72469  2.97%  11.7   30s
 89978 23837 9923.18858   37   10 10209.9980 9909.99919  2.94%  11.7   35s
 103640 26343 9924.54020   78   11 10209.9980 9909.99919  2.94%  12.0   40s
 125014 29792 10000.9992   60    3 10209.9980 9909.99919  2.94%  11.9   45s
 135444 31818 9934.69484   74    7 10209.9980 9909.99919  2.94%  12.0   50s
 154532 34609 10027.9992   35    4 10209.9980 9909.99919  2.94%  12.0   55s
H160036 35152                    10209.997923 9909.99919  2.94%  12.0   56s
 170120 40111 9943.99919   77   19 10209.9979 9909.99919  2.94%  12.0   60s
 186748 46187     cutoff   38      10209.9979 9909.99919  2.94%  12.0   65s
 217310 55319 9909.99919   51   11 10209.9979 9909.99919  2.94%  12.0   70s
 250552 66996 9989.99919   40    9 10209.9979 9909.99919  2.94%  12.0   75s
 282868 78093 9911.51318   53   25 10209.9979 9909.99919  2.94%  12.0   80s
 304453 88700 9979.99919   40    4 10209.9979 9909.99919  2.94%  12.0   85s
 354675 99148 10030.3343   88   16 10209.9979 9909.99919  2.94%  12.0   90s
 382202 116259 9918.52313   58   10 10209.9979 9909.99919  2.94%  12.0   95s
 426335 126409 10019.9992   37    5 10209.9979 9909.99919  2.94%  11.9  100s
 453079 137190 9910.69086   59   16 10209.9979 9909.99919  2.94%  11.9  105s
 478751 151317 9976.61660   64   18 10209.9979 9909.99919  2.94%  11.9  110s
 520766 161536 9933.37371   38    4 10209.9979 9909.99919  2.94%  11.9  115s
 555485 174365 9911.23211   55   11 10209.9979 9909.99919  2.94%  11.9  120s
 579646 189197 10006.0279  102    8 10209.9979 9909.99919  2.94%  11.9  125s
 617824 202043     cutoff   38      10209.9979 9909.99919  2.94%  12.0  130s
H643857 206136                    10209.997892 9909.99919  2.94%  12.0  132s
 656710 214765     cutoff  105      10209.9979 9910.07099  2.94%  12.0  135s
 676724 226072 10029.9992   83   15 10209.9979 9910.39285  2.93%  12.1  140s
 685026 230934     cutoff   61      10209.9979 9910.61551  2.93%  12.1  145s
 711130 238339     cutoff   48      10209.9979 9910.73201  2.93%  12.2  150s
 745560 242974 10020.9992   95    2 10209.9979 9910.75196  2.93%  12.2  155s
 754739 248257 9963.99919   76   13 10209.9979 9910.93643  2.93%  12.3  160s
 761497 252629 10039.9992   75    9 10209.9979 9911.04541  2.93%  12.3  167s
 767538 256101 9963.99919   84   13 10209.9979 9911.08833  2.93%  12.4  170s
 775249 260555 9916.78596   57   27 10209.9979 9911.21741  2.93%  12.4  175s
 785457 266759 9915.29632   63   30 10209.9979 9911.25388  2.93%  12.4  180s

Cutting planes:
  Learned: 4
  Gomory: 3
  Cover: 10
  Implied bound: 4
  Clique: 3
  MIR: 30
  StrongCG: 3
  Flow cover: 2
  Network: 1
  RLT: 13
  Relax-and-lift: 5

Explored 785991 nodes (9774022 simplex iterations) in 181.79 seconds (70.01 work units)
Thread count was 8 (of 8 available processors)

Solution count 6: 10210 10210 10210 ... 10210

Solve interrupted
Best objective 1.020999789175e+04, best bound 9.911258329472e+03, gap 2.9260%

User-callback calls 1572612, time in user-callback 4.99 sec

Statistics for modelBBOS_BWIN_BTG:
  Linear constraint matrix    : 3981 Constrs, 2210 Vars, 14469 NZs
  Variable types              : 1213 Continuous,
997 Integer (100 Binary)
  Matrix coefficient range    : [ 1, 200 ]
  Objective coefficient range : [ 1, 396 ]
  Variable bound range        : [ 1, 199 ]
  RHS coefficient range       : [ 1, 549 ]
